c Fichier DIMACS CNF pour un puzzle NoriNori de taille 6x6
p cnf 36 204
c Règle 2: Les cellules colorées ne peuvent pas se toucher par les côtés
-1 -2 0
-1 -7 0
-2 -3 0
-2 -8 0
-3 -4 0
-3 -9 0
-4 -5 0
-4 -10 0
-5 -6 0
-5 -11 0
-6 -12 0
-7 -8 0
-7 -13 0
-8 -9 0
-8 -14 0
-9 -10 0
-9 -15 0
-10 -11 0
-10 -16 0
-11 -12 0
-11 -17 0
-12 -18 0
-13 -14 0
-13 -19 0
-14 -15 0
-14 -20 0
-15 -16 0
-15 -21 0
-16 -17 0
-16 -22 0
-17 -18 0
-17 -23 0
-18 -24 0
-19 -20 0
-19 -25 0
-20 -21 0
-20 -26 0
-21 -22 0
-21 -27 0
-22 -23 0
-22 -28 0
-23 -24 0
-23 -29 0
-24 -30 0
-25 -26 0
-25 -31 0
-26 -27 0
-26 -32 0
-27 -28 0
-27 -33 0
-28 -29 0
-28 -34 0
-29 -30 0
-29 -35 0
-30 -36 0
-31 -32 0
-32 -33 0
-33 -34 0
-34 -35 0
-35 -36 0
c Règle 1: Chaque région doit contenir exactement 2 cellules colorées
2 8 0
35 36 0
14 13 0
18 12 0
18 17 0
18 24 0
18 30 0
18 23 0
18 6 0
12 17 0
12 24 0
12 30 0
12 23 0
12 6 0
17 24 0
17 30 0
17 23 0
17 6 0
24 30 0
24 23 0
24 6 0
30 23 0
30 6 0
23 6 0
-18 -12 -17 0
-18 -12 -24 0
-18 -12 -30 0
-18 -12 -23 0
-18 -12 -6 0
-18 -17 -24 0
-18 -17 -30 0
-18 -17 -23 0
-18 -17 -6 0
-18 -24 -30 0
-18 -24 -23 0
-18 -24 -6 0
-18 -30 -23 0
-18 -30 -6 0
-18 -23 -6 0
-12 -17 -24 0
-12 -17 -30 0
-12 -17 -23 0
-12 -17 -6 0
-12 -24 -30 0
-12 -24 -23 0
-12 -24 -6 0
-12 -30 -23 0
-12 -30 -6 0
-12 -23 -6 0
-17 -24 -30 0
-17 -24 -23 0
-17 -24 -6 0
-17 -30 -23 0
-17 -30 -6 0
-17 -23 -6 0
-24 -30 -23 0
-24 -30 -6 0
-24 -23 -6 0
-30 -23 -6 0
19 25 0
19 26 0
19 20 0
25 26 0
25 20 0
26 20 0
-19 -25 -26 0
-19 -25 -20 0
-19 -26 -20 0
-25 -26 -20 0
3 4 0
3 10 0
3 9 0
3 5 0
3 15 0
3 11 0
4 10 0
4 9 0
4 5 0
4 15 0
4 11 0
10 9 0
10 5 0
10 15 0
10 11 0
9 5 0
9 15 0
9 11 0
5 15 0
5 11 0
15 11 0
-3 -4 -10 0
-3 -4 -9 0
-3 -4 -5 0
-3 -4 -15 0
-3 -4 -11 0
-3 -10 -9 0
-3 -10 -5 0
-3 -10 -15 0
-3 -10 -11 0
-3 -9 -5 0
-3 -9 -15 0
-3 -9 -11 0
-3 -5 -15 0
-3 -5 -11 0
-3 -15 -11 0
-4 -10 -9 0
-4 -10 -5 0
-4 -10 -15 0
-4 -10 -11 0
-4 -9 -5 0
-4 -9 -15 0
-4 -9 -11 0
-4 -5 -15 0
-4 -5 -11 0
-4 -15 -11 0
-10 -9 -5 0
-10 -9 -15 0
-10 -9 -11 0
-10 -5 -15 0
-10 -5 -11 0
-10 -15 -11 0
-9 -5 -15 0
-9 -5 -11 0
-9 -15 -11 0
-5 -15 -11 0
1 7 0
31 32 0
31 33 0
31 27 0
32 33 0
32 27 0
33 27 0
-31 -32 -33 0
-31 -32 -27 0
-31 -33 -27 0
-32 -33 -27 0
34 28 0
34 29 0
28 29 0
-34 -28 -29 0
16 22 0
16 21 0
22 21 0
-16 -22 -21 0
